p cnf 30 30
-14 16 12 0
12 -21 25 0
-12 -22 16 0
6 -24 -25 0
-13 7 -9 0
23 21 -25 0
-19 -17 -7 0
12 -8 10 0
-15 -2 22 0
4 9 25 0
19 16 25 0
-8 -10 18 0
-25 -26 2 0
4 18 29 0
6 10 18 0
-25 -3 -16 0
-15 -11 -23 0
13 12 -24 0
-7 24 1 0
17 -4 1 0
-7 -2 -20 0
8 17 -3 0
-27 9 14 0
1 24 28 0
-18 25 -12 0
-21 -8 -26 0
8 -25 13 0
-4 -16 6 0
10 30 4 0
27 21 -17 0
